NAME : sample5
TYPE : TSP
DIMENSION : 20
EDGE_WEIGHT_TYPE : EUC_2D
NODE_COORD_SECTION
	0	-8,75	0,96
	1	0,48	16,29
	2	-1,35	-0,28
	3	19,62	-3,24
	4	11,12	-5,79
	5	9,43	-17,69
	6	17,63	17,99
	7	-16,58	-19,12
	8	19,91	-3,51
	9	6,69	10,78
	10	15,88	-6,61
	11	-11,01	-3,09
	12	17,12	-6,8
	13	5,14	-3,43
	14	-5,5	-19,99
	15	-17,02	-11,48
	16	-14,41	18,34
	17	7,19	9,44
	18	-1,41	1,23
	19	-3,92	10,05
EOF